Gurobi Optimizer version 9.1.2 build v9.1.2rc0 (linux64)
Thread count: 36 physical cores, 72 logical processors, using up to 32 threads
Optimize a model with 12 rows, 57 columns and 590 nonzeros
Model fingerprint: 0xf32eec78
Model has 47 quadratic constraints
Coefficient statistics:
  Matrix range     [2e-05, 3e+00]
  QMatrix range    [1e+00, 1e+00]
  QLMatrix range   [1e+00, 1e+00]
  Objective range  [8e-03, 7e-01]
  Bounds range     [1e+00, 1e+00]
  RHS range        [1e+00, 1e+00]
Presolve removed 9 rows and 0 columns

Continuous model is non-convex -- solving as a MIP.

Presolve removed 9 rows and 0 columns
Presolve time: 0.00s
Presolved: 189 rows, 57 columns, 443 nonzeros
Presolved model has 47 bilinear constraint(s)
Variable types: 57 continuous, 0 integer (0 binary)

Root relaxation: objective -1.743721e+00, 44 iterations, 0.00 seconds

    Nodes    |    Current Node    |     Objective Bounds      |     Work
 Expl Unexpl |  Obj  Depth IntInf | Incumbent    BestBd   Gap | It/Node Time

     0     0   -1.74372    0   38          -   -1.74372      -     -    0s
H    0     0                       0.6147548   -1.74372   384%     -    0s
     0     0   -1.64739    0    1    0.61475   -1.64739   368%     -    0s
H    0     0                      -1.6450460   -1.64739  0.14%     -    0s
     0     0     cutoff    0        -1.64505   -1.64505  0.00%     -    0s

Cutting planes:
  RLT: 25
  BQP: 3

Explored 1 nodes (76 simplex iterations) in 0.01 seconds
Thread count was 32 (of 72 available processors)

Solution count 2: -1.64505 0.614755 
No other solutions better than -1.64505

Optimal solution found (tolerance 1.00e-04)
Best objective -1.645045978473e+00, best bound -1.645045978473e+00, gap 0.0000%

User-callback calls 78, time in user-callback 0.00 sec
Gurobi Optimizer version 9.1.2 build v9.1.2rc0 (linux64)
Thread count: 36 physical cores, 72 logical processors, using up to 32 threads
Optimize a model with 24 rows, 120 columns and 2480 nonzeros
Model fingerprint: 0xa1c8553e
Model has 100 quadratic constraints
Coefficient statistics:
  Matrix range     [8e-06, 4e+00]
  QMatrix range    [1e+00, 1e+00]
  QLMatrix range   [1e+00, 1e+00]
  Objective range  [2e-03, 8e-01]
  Bounds range     [1e+00, 1e+00]
  RHS range        [1e+00, 1e+00]
Presolve removed 17 rows and 0 columns

Continuous model is non-convex -- solving as a MIP.

Presolve removed 17 rows and 0 columns
Presolve time: 0.00s
Presolved: 407 rows, 120 columns, 1232 nonzeros
Presolved model has 100 bilinear constraint(s)
Variable types: 120 continuous, 0 integer (0 binary)

Root relaxation: objective -4.451756e+00, 131 iterations, 0.00 seconds

    Nodes    |    Current Node    |     Objective Bounds      |     Work
 Expl Unexpl |  Obj  Depth IntInf | Incumbent    BestBd   Gap | It/Node Time

     0     0   -4.45176    0  100          -   -4.45176      -     -    0s
H    0     0                       1.8781615   -4.45176   337%     -    0s
     0     0   -2.93171    0  100    1.87816   -2.93171   256%     -    0s
H    0     0                       0.5807687   -2.93171   605%     -    0s
     0     0   -2.92003    0  100    0.58077   -2.92003   603%     -    0s
     0     0   -2.60045    0  100    0.58077   -2.60045   548%     -    0s
H    0     0                       0.2948757   -2.60045   982%     -    0s
     0     0   -2.59597    0  100    0.29488   -2.59597   980%     -    0s
     0     0   -2.48073    0  100    0.29488   -2.48073   941%     -    0s
H    0     0                       0.1366709   -2.48073  1915%     -    0s
     0     0   -2.47968    0  100    0.13667   -2.47968  1914%     -    0s
     0     0   -2.45589    0  100    0.13667   -2.45589  1897%     -    0s
     0     0   -2.45366    0  100    0.13667   -2.45366  1895%     -    0s
     0     0   -2.44915    0  100    0.13667   -2.44915  1892%     -    0s
H    0     0                      -0.0668407   -2.44915  3564%     -    0s
     0     0   -2.44899    0  100   -0.06684   -2.44899  3564%     -    0s
     0     0   -2.44434    0  100   -0.06684   -2.44434  3557%     -    0s
H    0     0                      -1.8111029   -2.44434  35.0%     -    0s
H    0     0                      -1.8451598   -2.44434  32.5%     -    0s
H    0     0                      -1.8993409   -2.44434  28.7%     -    0s
     0     2   -2.44434    0  100   -1.89934   -2.44434  28.7%     -    0s
*  595   319              20      -1.8994106   -2.11701  11.5%  26.3    0s
*  596   319              20      -1.8994121   -2.11701  11.5%  26.3    0s
*  687   319              22      -2.0101235   -2.11701  5.32%  24.4    0s
*  786   277              27      -2.0101546   -2.11701  5.32%  22.5    0s
*  909   401              26      -2.0135787   -2.11701  5.14%  20.6    0s
*  994   401              32      -2.0341712   -2.11701  4.07%  19.6    0s
H 1099   462                      -2.0550428   -2.08416  1.42%  18.6    0s
* 1102   462              22      -2.0550514   -2.08416  1.42%  18.6    0s
* 1327   235              18      -2.0574449   -2.06058  0.15%  16.4    0s
* 1328   235              18      -2.0574521   -2.06058  0.15%  16.4    0s
* 1530    52              21      -2.0578899   -2.05938  0.07%  14.4    0s
* 1798    48              25      -2.0581068   -2.05831  0.01%  12.5    0s

Cutting planes:
  RLT: 55
  BQP: 12
  PSD: 3

Explored 1891 nodes (23037 simplex iterations) in 0.49 seconds
Thread count was 32 (of 72 available processors)

Solution count 10: -2.05811 -2.05789 -2.05745 ... -2.01012

Optimal solution found (tolerance 1.00e-04)
Best objective -2.058106779970e+00, best bound -2.058278193015e+00, gap 0.0083%

User-callback calls 4054, time in user-callback 0.00 sec



objective value: -2.058106779970215
objective bound: -2.058278193015136
x_opt: [0.0, 1.0, 1.0, 0.0, 1.0, 0.017708965851556572, 0.025695302755831765, 0.0, 1.0, 1.0, 0.0, 5.348918846763773e-6, 0.0, 1.0, 0.0, 0.8049276743130369, 1.0, 0.15297302795230422, 0.0, 0.4107853475239214]
GUROBI solution time: 0.4889640808105469




